20	5
0	8	5	1	7	2	3	8	6	4
1	4	12	13	14	16
2	2	17	11
3	6	15	18	16	19	20	17
4	2	14	17
5	4	14	10	16	15
6	3	16	17	14
7	4	15	12	10	14
8	3	16	18	21
9	1	18
10	1	11
11	2	9	19
12	2	17	11
13	2	10	15
14	0
15	1	21
16	1	21
17	1	21
18	1	21
19	1	21
20	1	21
21	0
0	0	0	0	0	0	0
1	2	1	0	0	3	0
2	3	3	2	2	0	4
3	1	1	2	1	3	2
4	10	0	0	0	0	1
5	3	0	0	0	1	2
6	3	0	1	0	4	0
7	2	0	0	4	4	1
8	9	0	0	0	0	3
9	2	3	0	0	0	1
10	1	2	3	0	0	0
11	10	4	3	3	0	4
12	9	5	0	0	0	2
13	4	3	1	4	0	0
14	3	0	1	0	5	0
15	5	1	3	0	0	0
16	4	0	5	0	0	0
17	5	2	0	0	4	4
18	1	2	4	2	3	5
19	6	0	3	2	0	0
20	5	0	0	4	1	0
21	0	0	0	0	0	0
5	5	5	5	5
